(declare-fun var0 () String)
(declare-fun var1 () String)
(declare-fun var2 () String)
(declare-fun var3 () String)
(declare-fun var4 () String)
(declare-fun var5 () String)
(assert (= var0 (Concat "fWO.r" (Concat var1 (Concat var2 "")))))
(assert (= var3 (Concat "*viAt" (Concat var4 (Concat var5 "")))))
(assert (= var0 var3))
(check-sat)